DATASET = "thpack7";
INSTANCE = "064";

WIDTH = 233;
HEIGHT = 220;
LENGTH = 587;

NO_OF_SHAPES = 20;
size = [|
  114,54,20 |
  92,87,50 |
  114,43,26 |
  93,69,42 |
  80,79,64 |
  99,80,29 |
  60,54,47 |
  54,53,32 |
  113,75,68 |
  67,66,49 |
  65,30,21 |
  110,63,29 |
  75,60,27 |
  95,71,40 |
  92,74,67 |
  55,43,38 |
  105,32,31 |
  90,81,46 |
  90,60,38 |
  77,42,22 |
|];

verticality = [|
  0,0,1 |
  1,1,1 |
  0,1,1 |
  0,1,1 |
  1,1,1 |
  0,0,1 |
  1,1,1 |
  1,1,1 |
  1,1,1 |
  1,1,1 |
  0,1,1 |
  0,0,1 |
  0,0,1 |
  0,1,1 |
  1,1,1 |
  1,1,1 |
  0,1,1 |
  1,1,1 |
  0,1,1 |
  0,1,1 |
|];

box_count = [
  6,
  6,
  4,
  5,
  5,
  5,
  3,
  3,
  15,
  4,
  3,
  4,
  7,
  2,
  11,
  6,
  4,
  4,
  8,
  3,
];
